100 4950
1 2 1
1 3 1
1 4 5
1 5 1
1 6 3
1 7 4
1 8 3
1 9 5
1 10 3
1 11 2
1 12 2
1 13 4
1 14 2
1 15 5
1 16 4
1 17 4
1 18 4
1 19 2
1 20 1
1 21 4
1 22 5
1 23 4
1 24 3
1 25 2
1 26 5
1 27 1
1 28 3
1 29 3
1 30 2
1 31 3
1 32 2
1 33 4
1 34 3
1 35 4
1 36 4
1 37 1
1 38 1
1 39 1
1 40 1
1 41 3
1 42 5
1 43 1
1 44 3
1 45 1
1 46 3
1 47 3
1 48 2
1 49 2
1 50 1
1 51 2
1 52 4
1 53 2
1 54 1
1 55 2
1 56 2
1 57 1
1 58 5
1 59 2
1 60 5
1 61 4
1 62 4
1 63 4
1 64 1
1 65 1
1 66 2
1 67 3
1 68 3
1 69 4
1 70 5
1 71 4
1 72 3
1 73 4
1 74 1
1 75 3
1 76 4
1 77 1
1 78 3
1 79 1
1 80 5
1 81 4
1 82 5
1 83 4
1 84 3
1 85 1
1 86 1
1 87 4
1 88 3
1 89 2
1 90 3
1 91 3
1 92 4
1 93 5
1 94 3
1 95 3
1 96 1
1 97 4
1 98 2
1 99 2
1 100 2
2 3 3
2 4 4
2 5 2
2 6 3
2 7 2
2 8 3
2 9 1
2 10 5
2 11 5
2 12 3
2 13 2
2 14 4
2 15 2
2 16 3
2 17 1
2 18 4
2 19 5
2 20 2
2 21 3
2 22 2
2 23 4
2 24 2
2 25 5
2 26 4
2 27 5
2 28 5
2 29 2
2 30 4
2 31 2
2 32 4
2 33 4
2 34 3
2 35 1
2 36 2
2 37 1
2 38 3
2 39 5
2 40 3
2 41 1
2 42 5
2 43 1
2 44 4
2 45 3
2 46 2
2 47 1
2 48 5
2 49 3
2 50 4
2 51 3
2 52 4
2 53 2
2 54 2
2 55 5
2 56 1
2 57 1
2 58 5
2 59 1
2 60 3
2 61 1
2 62 1
2 63 5
2 64 2
2 65 1
2 66 4
2 67 5
2 68 2
2 69 2
2 70 1
2 71 4
2 72 5
2 73 5
2 74 2
2 75 5
2 76 3
2 77 3
2 78 1
2 79 1
2 80 5
2 81 5
2 82 4
2 83 3
2 84 2
2 85 4
2 86 1
2 87 2
2 88 3
2 89 4
2 90 1
2 91 2
2 92 3
2 93 2
2 94 1
2 95 4
2 96 2
2 97 4
2 98 5
2 99 3
2 100 3
3 4 2
3 5 4
3 6 4
3 7 4
3 8 3
3 9 1
3 10 2
3 11 3
3 12 3
3 13 5
3 14 3
3 15 4
3 16 4
3 17 2
3 18 5
3 19 4
3 20 4
3 21 1
3 22 5
3 23 4
3 24 4
3 25 2
3 26 4
3 27 2
3 28 2
3 29 5
3 30 3
3 31 1
3 32 1
3 33 5
3 34 4
3 35 3
3 36 5
3 37 1
3 38 4
3 39 4
3 40 1
3 41 4
3 42 3
3 43 1
3 44 3
3 45 5
3 46 2
3 47 4
3 48 1
3 49 1
3 50 3
3 51 2
3 52 2
3 53 3
3 54 4
3 55 1
3 56 4
3 57 3
3 58 2
3 59 1
3 60 5
3 61 4
3 62 4
3 63 5
3 64 3
3 65 4
3 66 1
3 67 5
3 68 2
3 69 2
3 70 3
3 71 5
3 72 4
3 73 2
3 74 2
3 75 5
3 76 5
3 77 1
3 78 4
3 79 3
3 80 5
3 81 3
3 82 3
3 83 4
3 84 5
3 85 4
3 86 4
3 87 2
3 88 1
3 89 2
3 90 2
3 91 2
3 92 5
3 93 4
3 94 3
3 95 5
3 96 2
3 97 4
3 98 1
3 99 1
3 100 3
4 5 5
4 6 2
4 7 1
4 8 3
4 9 4
4 10 2
4 11 1
4 12 4
4 13 5
4 14 1
4 15 5
4 16 4
4 17 2
4 18 4
4 19 1
4 20 5
4 21 5
4 22 4
4 23 5
4 24 5
4 25 3
4 26 4
4 27 3
4 28 3
4 29 3
4 30 3
4 31 5
4 32 1
4 33 1
4 34 5
4 35 3
4 36 1
4 37 5
4 38 4
4 39 4
4 40 4
4 41 5
4 42 4
4 43 4
4 44 1
4 45 1
4 46 1
4 47 2
4 48 4
4 49 2
4 50 3
4 51 4
4 52 3
4 53 2
4 54 3
4 55 3
4 56 5
4 57 2
4 58 4
4 59 5
4 60 2
4 61 3
4 62 1
4 63 5
4 64 5
4 65 2
4 66 5
4 67 2
4 68 3
4 69 2
4 70 1
4 71 4
4 72 2
4 73 4
4 74 3
4 75 4
4 76 4
4 77 3
4 78 1
4 79 2
4 80 1
4 81 4
4 82 1
4 83 3
4 84 5
4 85 3
4 86 1
4 87 2
4 88 1
4 89 1
4 90 2
4 91 1
4 92 3
4 93 5
4 94 5
4 95 3
4 96 2
4 97 4
4 98 1
4 99 4
4 100 2
5 6 5
5 7 4
5 8 1
5 9 1
5 10 2
5 11 1
5 12 4
5 13 5
5 14 1
5 15 2
5 16 2
5 17 1
5 18 2
5 19 2
5 20 4
5 21 3
5 22 3
5 23 1
5 24 5
5 25 2
5 26 1
5 27 1
5 28 4
5 29 4
5 30 1
5 31 4
5 32 5
5 33 2
5 34 1
5 35 2
5 36 1
5 37 3
5 38 3
5 39 5
5 40 2
5 41 4
5 42 3
5 43 1
5 44 5
5 45 1
5 46 5
5 47 4
5 48 5
5 49 3
5 50 5
5 51 5
5 52 5
5 53 2
5 54 1
5 55 5
5 56 5
5 57 3
5 58 2
5 59 5
5 60 3
5 61 1
5 62 4
5 63 1
5 64 5
5 65 1
5 66 4
5 67 4
5 68 3
5 69 4
5 70 4
5 71 5
5 72 4
5 73 5
5 74 4
5 75 3
5 76 4
5 77 3
5 78 1
5 79 2
5 80 2
5 81 2
5 82 4
5 83 5
5 84 4
5 85 2
5 86 2
5 87 2
5 88 3
5 89 2
5 90 1
5 91 4
5 92 5
5 93 2
5 94 4
5 95 5
5 96 2
5 97 3
5 98 2
5 99 5
5 100 1
6 7 2
6 8 3
6 9 2
6 10 2
6 11 3
6 12 1
6 13 5
6 14 4
6 15 4
6 16 5
6 17 3
6 18 3
6 19 1
6 20 3
6 21 3
6 22 3
6 23 4
6 24 3
6 25 1
6 26 5
6 27 2
6 28 4
6 29 5
6 30 1
6 31 3
6 32 4
6 33 2
6 34 5
6 35 2
6 36 1
6 37 4
6 38 2
6 39 5
6 40 4
6 41 4
6 42 1
6 43 2
6 44 4
6 45 3
6 46 4
6 47 3
6 48 2
6 49 5
6 50 5
6 51 4
6 52 5
6 53 5
6 54 1
6 55 3
6 56 1
6 57 3
6 58 3
6 59 1
6 60 1
6 61 4
6 62 3
6 63 5
6 64 4
6 65 1
6 66 2
6 67 3
6 68 1
6 69 2
6 70 4
6 71 1
6 72 3
6 73 4
6 74 1
6 75 3
6 76 3
6 77 4
6 78 2
6 79 1
6 80 3
6 81 1
6 82 4
6 83 5
6 84 1
6 85 2
6 86 5
6 87 3
6 88 2
6 89 5
6 90 3
6 91 3
6 92 4
6 93 5
6 94 2
6 95 4
6 96 2
6 97 3
6 98 1
6 99 3
6 100 1
7 8 1
7 9 1
7 10 5
7 11 4
7 12 3
7 13 3
7 14 3
7 15 4
7 16 3
7 17 1
7 18 1
7 19 1
7 20 4
7 21 5
7 22 1
7 23 3
7 24 3
7 25 4
7 26 4
7 27 1
7 28 3
7 29 2
7 30 1
7 31 2
7 32 4
7 33 1
7 34 4
7 35 2
7 36 1
7 37 2
7 38 5
7 39 4
7 40 4
7 41 5
7 42 2
7 43 1
7 44 2
7 45 4
7 46 5
7 47 3
7 48 2
7 49 2
7 50 3
7 51 5
7 52 4
7 53 5
7 54 2
7 55 1
7 56 5
7 57 1
7 58 1
7 59 2
7 60 1
7 61 5
7 62 3
7 63 1
7 64 4
7 65 1
7 66 4
7 67 2
7 68 4
7 69 4
7 70 5
7 71 4
7 72 1
7 73 1
7 74 5
7 75 1
7 76 4
7 77 1
7 78 3
7 79 4
7 80 3
7 81 3
7 82 2
7 83 5
7 84 2
7 85 2
7 86 4
7 87 1
7 88 2
7 89 4
7 90 4
7 91 4
7 92 2
7 93 4
7 94 1
7 95 4
7 96 2
7 97 4
7 98 4
7 99 4
7 100 3
8 9 5
8 10 4
8 11 1
8 12 3
8 13 5
8 14 1
8 15 5
8 16 2
8 17 3
8 18 3
8 19 3
8 20 3
8 21 4
8 22 5
8 23 4
8 24 4
8 25 4
8 26 3
8 27 3
8 28 5
8 29 3
8 30 4
8 31 4
8 32 3
8 33 1
8 34 4
8 35 5
8 36 5
8 37 1
8 38 4
8 39 2
8 40 2
8 41 3
8 42 3
8 43 5
8 44 1
8 45 3
8 46 1
8 47 3
8 48 5
8 49 2
8 50 2
8 51 4
8 52 3
8 53 4
8 54 2
8 55 3
8 56 2
8 57 5
8 58 3
8 59 1
8 60 2
8 61 4
8 62 2
8 63 2
8 64 5
8 65 3
8 66 1
8 67 5
8 68 1
8 69 5
8 70 1
8 71 2
8 72 5
8 73 4
8 74 4
8 75 3
8 76 4
8 77 4
8 78 5
8 79 5
8 80 3
8 81 1
8 82 4
8 83 1
8 84 5
8 85 4
8 86 1
8 87 4
8 88 1
8 89 5
8 90 5
8 91 5
8 92 3
8 93 3
8 94 4
8 95 3
8 96 2
8 97 5
8 98 5
8 99 2
8 100 3
9 10 5
9 11 4
9 12 2
9 13 2
9 14 4
9 15 2
9 16 1
9 17 4
9 18 3
9 19 5
9 20 4
9 21 1
9 22 1
9 23 5
9 24 2
9 25 4
9 26 3
9 27 5
9 28 4
9 29 5
9 30 2
9 31 4
9 32 4
9 33 4
9 34 1
9 35 2
9 36 3
9 37 1
9 38 3
9 39 1
9 40 1
9 41 5
9 42 3
9 43 5
9 44 1
9 45 4
9 46 5
9 47 1
9 48 2
9 49 2
9 50 2
9 51 1
9 52 3
9 53 4
9 54 4
9 55 3
9 56 3
9 57 1
9 58 4
9 59 5
9 60 1
9 61 1
9 62 2
9 63 1
9 64 3
9 65 3
9 66 4
9 67 5
9 68 5
9 69 5
9 70 4
9 71 2
9 72 3
9 73 5
9 74 1
9 75 1
9 76 4
9 77 1
9 78 3
9 79 2
9 80 5
9 81 5
9 82 3
9 83 2
9 84 3
9 85 5
9 86 5
9 87 3
9 88 1
9 89 2
9 90 2
9 91 5
9 92 4
9 93 1
9 94 1
9 95 4
9 96 4
9 97 4
9 98 1
9 99 2
9 100 5
10 11 1
10 12 4
10 13 2
10 14 3
10 15 1
10 16 4
10 17 5
10 18 3
10 19 4
10 20 1
10 21 2
10 22 5
10 23 1
10 24 2
10 25 3
10 26 1
10 27 2
10 28 5
10 29 1
10 30 3
10 31 4
10 32 2
10 33 2
10 34 3
10 35 5
10 36 4
10 37 5
10 38 4
10 39 1
10 40 3
10 41 2
10 42 4
10 43 4
10 44 2
10 45 5
10 46 1
10 47 1
10 48 3
10 49 5
10 50 2
10 51 3
10 52 3
10 53 1
10 54 4
10 55 3
10 56 1
10 57 4
10 58 4
10 59 4
10 60 4
10 61 5
10 62 2
10 63 5
10 64 4
10 65 3
10 66 1
10 67 3
10 68 5
10 69 1
10 70 1
10 71 1
10 72 5
10 73 4
10 74 4
10 75 4
10 76 2
10 77 1
10 78 5
10 79 4
10 80 2
10 81 5
10 82 5
10 83 3
10 84 5
10 85 3
10 86 3
10 87 3
10 88 3
10 89 1
10 90 4
10 91 5
10 92 1
10 93 4
10 94 1
10 95 4
10 96 4
10 97 3
10 98 4
10 99 4
10 100 2
11 12 1
11 13 3
11 14 4
11 15 2
11 16 5
11 17 5
11 18 1
11 19 3
11 20 5
11 21 2
11 22 2
11 23 5
11 24 3
11 25 4
11 26 4
11 27 5
11 28 3
11 29 1
11 30 2
11 31 5
11 32 1
11 33 2
11 34 2
11 35 2
11 36 1
11 37 2
11 38 3
11 39 2
11 40 4
11 41 1
11 42 3
11 43 3
11 44 2
11 45 2
11 46 5
11 47 5
11 48 5
11 49 1
11 50 3
11 51 4
11 52 3
11 53 1
11 54 5
11 55 1
11 56 1
11 57 1
11 58 1
11 59 2
11 60 3
11 61 4
11 62 2
11 63 4
11 64 4
11 65 4
11 66 1
11 67 4
11 68 5
11 69 1
11 70 4
11 71 5
11 72 1
11 73 5
11 74 1
11 75 4
11 76 4
11 77 4
11 78 5
11 79 3
11 80 2
11 81 4
11 82 5
11 83 3
11 84 1
11 85 4
11 86 4
11 87 4
11 88 2
11 89 2
11 90 3
11 91 3
11 92 3
11 93 4
11 94 3
11 95 5
11 96 2
11 97 4
11 98 1
11 99 2
11 100 5
12 13 1
12 14 3
12 15 5
12 16 3
12 17 2
12 18 3
12 19 5
12 20 4
12 21 4
12 22 1
12 23 5
12 24 2
12 25 4
12 26 5
12 27 1
12 28 3
12 29 5
12 30 4
12 31 4
12 32 4
12 33 5
12 34 1
12 35 2
12 36 4
12 37 1
12 38 3
12 39 4
12 40 2
12 41 2
12 42 2
12 43 4
12 44 1
12 45 3
12 46 2
12 47 5
12 48 2
12 49 3
12 50 4
12 51 4
12 52 5
12 53 1
12 54 2
12 55 5
12 56 1
12 57 5
12 58 1
12 59 5
12 60 1
12 61 3
12 62 5
12 63 4
12 64 4
12 65 2
12 66 5
12 67 1
12 68 1
12 69 3
12 70 2
12 71 4
12 72 5
12 73 4
12 74 5
12 75 4
12 76 5
12 77 4
12 78 5
12 79 1
12 80 1
12 81 3
12 82 1
12 83 1
12 84 2
12 85 5
12 86 1
12 87 4
12 88 1
12 89 2
12 90 1
12 91 4
12 92 5
12 93 1
12 94 1
12 95 3
12 96 5
12 97 4
12 98 3
12 99 4
12 100 3
13 14 5
13 15 1
13 16 4
13 17 4
13 18 2
13 19 4
13 20 1
13 21 4
13 22 3
13 23 3
13 24 1
13 25 1
13 26 1
13 27 4
13 28 2
13 29 4
13 30 5
13 31 2
13 32 5
13 33 1
13 34 4
13 35 5
13 36 1
13 37 4
13 38 5
13 39 5
13 40 1
13 41 3
13 42 4
13 43 2
13 44 1
13 45 2
13 46 1
13 47 4
13 48 5
13 49 3
13 50 4
13 51 4
13 52 1
13 53 1
13 54 5
13 55 4
13 56 5
13 57 1
13 58 3
13 59 2
13 60 5
13 61 2
13 62 3
13 63 3
13 64 4
13 65 2
13 66 3
13 67 2
13 68 1
13 69 2
13 70 2
13 71 4
13 72 1
13 73 2
13 74 2
13 75 4
13 76 1
13 77 3
13 78 2
13 79 3
13 80 2
13 81 3
13 82 2
13 83 2
13 84 2
13 85 5
13 86 5
13 87 5
13 88 3
13 89 5
13 90 4
13 91 4
13 92 5
13 93 3
13 94 3
13 95 2
13 96 3
13 97 1
13 98 4
13 99 2
13 100 1
14 15 2
14 16 1
14 17 5
14 18 5
14 19 1
14 20 5
14 21 1
14 22 3
14 23 4
14 24 4
14 25 5
14 26 1
14 27 3
14 28 4
14 29 5
14 30 3
14 31 3
14 32 3
14 33 1
14 34 5
14 35 4
14 36 3
14 37 5
14 38 1
14 39 1
14 40 4
14 41 4
14 42 3
14 43 4
14 44 2
14 45 4
14 46 2
14 47 4
14 48 2
14 49 4
14 50 4
14 51 5
14 52 4
14 53 4
14 54 2
14 55 3
14 56 5
14 57 1
14 58 2
14 59 1
14 60 4
14 61 2
14 62 3
14 63 1
14 64 2
14 65 5
14 66 4
14 67 3
14 68 3
14 69 2
14 70 5
14 71 3
14 72 5
14 73 3
14 74 5
14 75 2
14 76 5
14 77 3
14 78 2
14 79 3
14 80 1
14 81 5
14 82 2
14 83 4
14 84 4
14 85 3
14 86 5
14 87 3
14 88 1
14 89 3
14 90 4
14 91 1
14 92 2
14 93 3
14 94 3
14 95 1
14 96 4
14 97 5
14 98 1
14 99 3
14 100 1
15 16 1
15 17 2
15 18 3
15 19 2
15 20 5
15 21 2
15 22 1
15 23 2
15 24 4
15 25 1
15 26 5
15 27 5
15 28 3
15 29 4
15 30 5
15 31 3
15 32 5
15 33 5
15 34 5
15 35 2
15 36 2
15 37 2
15 38 5
15 39 4
15 40 2
15 41 2
15 42 4
15 43 5
15 44 2
15 45 5
15 46 3
15 47 1
15 48 4
15 49 1
15 50 2
15 51 1
15 52 4
15 53 5
15 54 5
15 55 3
15 56 3
15 57 1
15 58 1
15 59 2
15 60 5
15 61 3
15 62 5
15 63 1
15 64 3
15 65 2
15 66 3
15 67 3
15 68 1
15 69 2
15 70 4
15 71 5
15 72 4
15 73 3
15 74 1
15 75 4
15 76 5
15 77 4
15 78 3
15 79 1
15 80 5
15 81 1
15 82 4
15 83 5
15 84 3
15 85 4
15 86 2
15 87 3
15 88 2
15 89 4
15 90 3
15 91 3
15 92 1
15 93 3
15 94 3
15 95 4
15 96 1
15 97 3
15 98 2
15 99 4
15 100 3
16 17 4
16 18 2
16 19 2
16 20 4
16 21 3
16 22 3
16 23 2
16 24 4
16 25 4
16 26 5
16 27 2
16 28 4
16 29 1
16 30 3
16 31 5
16 32 5
16 33 2
16 34 2
16 35 4
16 36 3
16 37 4
16 38 5
16 39 1
16 40 4
16 41 5
16 42 4
16 43 1
16 44 1
16 45 4
16 46 2
16 47 1
16 48 1
16 49 3
16 50 3
16 51 3
16 52 1
16 53 4
16 54 1
16 55 5
16 56 3
16 57 5
16 58 1
16 59 3
16 60 2
16 61 4
16 62 3
16 63 4
16 64 3
16 65 3
16 66 2
16 67 5
16 68 2
16 69 1
16 70 1
16 71 4
16 72 1
16 73 3
16 74 1
16 75 5
16 76 3
16 77 2
16 78 3
16 79 2
16 80 3
16 81 4
16 82 2
16 83 1
16 84 5
16 85 3
16 86 5
16 87 4
16 88 3
16 89 1
16 90 3
16 91 2
16 92 5
16 93 4
16 94 5
16 95 5
16 96 2
16 97 4
16 98 1
16 99 4
16 100 4
17 18 2
17 19 2
17 20 1
17 21 1
17 22 4
17 23 3
17 24 4
17 25 3
17 26 1
17 27 4
17 28 2
17 29 3
17 30 2
17 31 3
17 32 2
17 33 2
17 34 1
17 35 4
17 36 4
17 37 2
17 38 3
17 39 4
17 40 3
17 41 5
17 42 4
17 43 1
17 44 4
17 45 3
17 46 1
17 47 5
17 48 2
17 49 5
17 50 3
17 51 5
17 52 3
17 53 3
17 54 4
17 55 4
17 56 4
17 57 3
17 58 1
17 59 3
17 60 1
17 61 1
17 62 5
17 63 1
17 64 3
17 65 1
17 66 1
17 67 3
17 68 3
17 69 2
17 70 5
17 71 3
17 72 2
17 73 5
17 74 3
17 75 4
17 76 1
17 77 1
17 78 3
17 79 3
17 80 3
17 81 2
17 82 2
17 83 3
17 84 5
17 85 2
17 86 2
17 87 2
17 88 5
17 89 4
17 90 3
17 91 2
17 92 2
17 93 3
17 94 3
17 95 1
17 96 1
17 97 1
17 98 2
17 99 2
17 100 4
18 19 5
18 20 5
18 21 5
18 22 2
18 23 5
18 24 5
18 25 1
18 26 4
18 27 3
18 28 3
18 29 4
18 30 1
18 31 1
18 32 4
18 33 5
18 34 4
18 35 3
18 36 4
18 37 1
18 38 3
18 39 4
18 40 2
18 41 2
18 42 4
18 43 2
18 44 3
18 45 2
18 46 2
18 47 2
18 48 3
18 49 5
18 50 3
18 51 1
18 52 3
18 53 5
18 54 3
18 55 2
18 56 2
18 57 4
18 58 3
18 59 1
18 60 1
18 61 5
18 62 3
18 63 1
18 64 5
18 65 3
18 66 5
18 67 1
18 68 4
18 69 2
18 70 3
18 71 5
18 72 5
18 73 4
18 74 4
18 75 1
18 76 3
18 77 5
18 78 4
18 79 1
18 80 3
18 81 1
18 82 4
18 83 2
18 84 5
18 85 2
18 86 3
18 87 1
18 88 1
18 89 3
18 90 1
18 91 1
18 92 3
18 93 5
18 94 1
18 95 4
18 96 4
18 97 2
18 98 3
18 99 5
18 100 5
19 20 5
19 21 4
19 22 5
19 23 3
19 24 5
19 25 3
19 26 3
19 27 3
19 28 4
19 29 5
19 30 1
19 31 5
19 32 5
19 33 5
19 34 3
19 35 2
19 36 4
19 37 1
19 38 4
19 39 3
19 40 2
19 41 5
19 42 2
19 43 1
19 44 3
19 45 3
19 46 2
19 47 2
19 48 5
19 49 1
19 50 2
19 51 3
19 52 5
19 53 3
19 54 4
19 55 3
19 56 1
19 57 5
19 58 3
19 59 4
19 60 1
19 61 1
19 62 1
19 63 4
19 64 5
19 65 4
19 66 3
19 67 2
19 68 5
19 69 3
19 70 3
19 71 4
19 72 2
19 73 3
19 74 2
19 75 3
19 76 5
19 77 3
19 78 1
19 79 5
19 80 1
19 81 3
19 82 1
19 83 5
19 84 2
19 85 5
19 86 5
19 87 5
19 88 3
19 89 4
19 90 1
19 91 3
19 92 5
19 93 4
19 94 4
19 95 5
19 96 1
19 97 4
19 98 1
19 99 1
19 100 2
20 21 2
20 22 1
20 23 1
20 24 5
20 25 5
20 26 3
20 27 5
20 28 5
20 29 1
20 30 3
20 31 2
20 32 3
20 33 5
20 34 3
20 35 3
20 36 4
20 37 5
20 38 5
20 39 1
20 40 1
20 41 1
20 42 5
20 43 4
20 44 2
20 45 3
20 46 4
20 47 3
20 48 1
20 49 4
20 50 1
20 51 2
20 52 2
20 53 4
20 54 4
20 55 4
20 56 5
20 57 4
20 58 5
20 59 3
20 60 3
20 61 1
20 62 5
20 63 2
20 64 1
20 65 2
20 66 1
20 67 2
20 68 2
20 69 5
20 70 4
20 71 2
20 72 5
20 73 4
20 74 2
20 75 2
20 76 3
20 77 3
20 78 3
20 79 5
20 80 4
20 81 4
20 82 2
20 83 2
20 84 1
20 85 4
20 86 2
20 87 1
20 88 3
20 89 1
20 90 4
20 91 4
20 92 3
20 93 3
20 94 5
20 95 1
20 96 4
20 97 1
20 98 3
20 99 2
20 100 2
21 22 2
21 23 5
21 24 4
21 25 3
21 26 1
21 27 4
21 28 3
21 29 1
21 30 1
21 31 1
21 32 1
21 33 5
21 34 2
21 35 2
21 36 1
21 37 4
21 38 4
21 39 2
21 40 2
21 41 5
21 42 3
21 43 4
21 44 2
21 45 3
21 46 5
21 47 4
21 48 5
21 49 2
21 50 1
21 51 4
21 52 4
21 53 4
21 54 2
21 55 1
21 56 1
21 57 3
21 58 5
21 59 1
21 60 5
21 61 4
21 62 3
21 63 3
21 64 4
21 65 5
21 66 4
21 67 2
21 68 3
21 69 2
21 70 2
21 71 4
21 72 5
21 73 2
21 74 2
21 75 5
21 76 3
21 77 1
21 78 3
21 79 5
21 80 3
21 81 3
21 82 1
21 83 5
21 84 5
21 85 4
21 86 4
21 87 3
21 88 4
21 89 1
21 90 4
21 91 2
21 92 4
21 93 5
21 94 2
21 95 3
21 96 1
21 97 1
21 98 4
21 99 2
21 100 1
22 23 5
22 24 1
22 25 1
22 26 2
22 27 3
22 28 4
22 29 2
22 30 4
22 31 2
22 32 2
22 33 2
22 34 5
22 35 4
22 36 5
22 37 4
22 38 1
22 39 5
22 40 3
22 41 2
22 42 3
22 43 3
22 44 4
22 45 2
22 46 5
22 47 2
22 48 4
22 49 3
22 50 2
22 51 1
22 52 4
22 53 1
22 54 4
22 55 2
22 56 5
22 57 3
22 58 1
22 59 4
22 60 1
22 61 4
22 62 1
22 63 2
22 64 2
22 65 4
22 66 3
22 67 1
22 68 4
22 69 1
22 70 1
22 71 1
22 72 4
22 73 4
22 74 5
22 75 2
22 76 5
22 77 4
22 78 2
22 79 5
22 80 5
22 81 4
22 82 1
22 83 4
22 84 1
22 85 3
22 86 5
22 87 1
22 88 4
22 89 2
22 90 3
22 91 5
22 92 2
22 93 5
22 94 5
22 95 3
22 96 3
22 97 4
22 98 2
22 99 4
22 100 4
23 24 1
23 25 4
23 26 2
23 27 4
23 28 2
23 29 5
23 30 5
23 31 1
23 32 3
23 33 2
23 34 4
23 35 3
23 36 5
23 37 5
23 38 3
23 39 3
23 40 1
23 41 1
23 42 3
23 43 1
23 44 3
23 45 1
23 46 5
23 47 5
23 48 4
23 49 5
23 50 3
23 51 5
23 52 1
23 53 3
23 54 3
23 55 5
23 56 1
23 57 2
23 58 5
23 59 4
23 60 2
23 61 5
23 62 2
23 63 5
23 64 3
23 65 3
23 66 4
23 67 4
23 68 2
23 69 4
23 70 1
23 71 3
23 72 5
23 73 1
23 74 1
23 75 1
23 76 2
23 77 5
23 78 2
23 79 2
23 80 4
23 81 2
23 82 4
23 83 4
23 84 4
23 85 1
23 86 3
23 87 5
23 88 2
23 89 3
23 90 3
23 91 4
23 92 4
23 93 5
23 94 3
23 95 5
23 96 3
23 97 3
23 98 5
23 99 5
23 100 3
24 25 5
24 26 3
24 27 4
24 28 5
24 29 2
24 30 1
24 31 4
24 32 3
24 33 3
24 34 3
24 35 2
24 36 1
24 37 2
24 38 2
24 39 4
24 40 4
24 41 4
24 42 5
24 43 2
24 44 1
24 45 2
24 46 2
24 47 2
24 48 1
24 49 4
24 50 3
24 51 3
24 52 3
24 53 2
24 54 3
24 55 1
24 56 4
24 57 5
24 58 5
24 59 4
24 60 1
24 61 4
24 62 5
24 63 4
24 64 5
24 65 3
24 66 3
24 67 5
24 68 1
24 69 5
24 70 1
24 71 5
24 72 5
24 73 4
24 74 5
24 75 1
24 76 1
24 77 5
24 78 4
24 79 3
24 80 5
24 81 2
24 82 5
24 83 4
24 84 1
24 85 1
24 86 1
24 87 1
24 88 1
24 89 4
24 90 5
24 91 3
24 92 5
24 93 2
24 94 5
24 95 3
24 96 4
24 97 3
24 98 3
24 99 2
24 100 4
25 26 2
25 27 1
25 28 3
25 29 2
25 30 1
25 31 3
25 32 5
25 33 5
25 34 5
25 35 1
25 36 5
25 37 3
25 38 2
25 39 1
25 40 1
25 41 5
25 42 4
25 43 2
25 44 5
25 45 4
25 46 4
25 47 4
25 48 5
25 49 3
25 50 1
25 51 3
25 52 1
25 53 4
25 54 5
25 55 1
25 56 2
25 57 3
25 58 5
25 59 3
25 60 5
25 61 5
25 62 2
25 63 4
25 64 4
25 65 1
25 66 3
25 67 2
25 68 3
25 69 3
25 70 4
25 71 2
25 72 3
25 73 1
25 74 4
25 75 4
25 76 5
25 77 4
25 78 4
25 79 2
25 80 4
25 81 2
25 82 3
25 83 2
25 84 5
25 85 4
25 86 2
25 87 1
25 88 1
25 89 4
25 90 5
25 91 5
25 92 2
25 93 2
25 94 5
25 95 5
25 96 3
25 97 1
25 98 2
25 99 5
25 100 5
26 27 4
26 28 5
26 29 2
26 30 5
26 31 4
26 32 3
26 33 2
26 34 3
26 35 1
26 36 4
26 37 5
26 38 2
26 39 3
26 40 4
26 41 5
26 42 1
26 43 5
26 44 3
26 45 2
26 46 1
26 47 3
26 48 3
26 49 3
26 50 2
26 51 2
26 52 5
26 53 3
26 54 4
26 55 4
26 56 4
26 57 1
26 58 2
26 59 2
26 60 3
26 61 2
26 62 5
26 63 2
26 64 3
26 65 5
26 66 2
26 67 2
26 68 2
26 69 3
26 70 4
26 71 3
26 72 2
26 73 1
26 74 5
26 75 1
26 76 2
26 77 2
26 78 2
26 79 5
26 80 3
26 81 1
26 82 5
26 83 1
26 84 3
26 85 5
26 86 4
26 87 1
26 88 2
26 89 4
26 90 4
26 91 4
26 92 3
26 93 4
26 94 5
26 95 3
26 96 5
26 97 1
26 98 4
26 99 4
26 100 5
27 28 5
27 29 4
27 30 4
27 31 4
27 32 2
27 33 1
27 34 5
27 35 5
27 36 1
27 37 1
27 38 1
27 39 3
27 40 1
27 41 2
27 42 3
27 43 3
27 44 2
27 45 4
27 46 5
27 47 3
27 48 5
27 49 3
27 50 5
27 51 4
27 52 5
27 53 2
27 54 2
27 55 2
27 56 1
27 57 4
27 58 2
27 59 3
27 60 1
27 61 5
27 62 1
27 63 3
27 64 1
27 65 1
27 66 2
27 67 3
27 68 2
27 69 1
27 70 2
27 71 4
27 72 1
27 73 2
27 74 1
27 75 4
27 76 3
27 77 5
27 78 3
27 79 3
27 80 2
27 81 1
27 82 3
27 83 1
27 84 2
27 85 5
27 86 5
27 87 2
27 88 3
27 89 3
27 90 2
27 91 2
27 92 1
27 93 3
27 94 3
27 95 2
27 96 1
27 97 2
27 98 5
27 99 5
27 100 3
28 29 5
28 30 1
28 31 2
28 32 5
28 33 5
28 34 4
28 35 3
28 36 1
28 37 2
28 38 5
28 39 2
28 40 5
28 41 3
28 42 1
28 43 3
28 44 3
28 45 5
28 46 5
28 47 4
28 48 2
28 49 4
28 50 1
28 51 4
28 52 5
28 53 5
28 54 5
28 55 1
28 56 1
28 57 3
28 58 1
28 59 3
28 60 2
28 61 5
28 62 3
28 63 1
28 64 2
28 65 5
28 66 3
28 67 4
28 68 5
28 69 1
28 70 1
28 71 5
28 72 3
28 73 5
28 74 3
28 75 2
28 76 1
28 77 5
28 78 1
28 79 1
28 80 4
28 81 4
28 82 3
28 83 1
28 84 3
28 85 2
28 86 2
28 87 5
28 88 1
28 89 2
28 90 5
28 91 5
28 92 5
28 93 2
28 94 2
28 95 4
28 96 4
28 97 4
28 98 4
28 99 3
28 100 5
29 30 3
29 31 4
29 32 2
29 33 3
29 34 2
29 35 2
29 36 1
29 37 5
29 38 4
29 39 5
29 40 5
29 41 2
29 42 2
29 43 2
29 44 4
29 45 2
29 46 3
29 47 2
29 48 4
29 49 3
29 50 5
29 51 5
29 52 4
29 53 2
29 54 4
29 55 4
29 56 5
29 57 1
29 58 3
29 59 4
29 60 1
29 61 5
29 62 5
29 63 2
29 64 5
29 65 4
29 66 4
29 67 3
29 68 5
29 69 1
29 70 5
29 71 1
29 72 4
29 73 5
29 74 5
29 75 3
29 76 5
29 77 2
29 78 4
29 79 5
29 80 2
29 81 3
29 82 4
29 83 3
29 84 2
29 85 1
29 86 3
29 87 1
29 88 2
29 89 2
29 90 5
29 91 1
29 92 3
29 93 1
29 94 2
29 95 5
29 96 5
29 97 3
29 98 1
29 99 1
29 100 3
30 31 1
30 32 3
30 33 3
30 34 4
30 35 4
30 36 4
30 37 1
30 38 4
30 39 3
30 40 5
30 41 1
30 42 1
30 43 3
30 44 3
30 45 2
30 46 2
30 47 1
30 48 2
30 49 5
30 50 1
30 51 5
30 52 3
30 53 4
30 54 5
30 55 1
30 56 1
30 57 1
30 58 4
30 59 3
30 60 5
30 61 5
30 62 2
30 63 2
30 64 5
30 65 2
30 66 2
30 67 5
30 68 1
30 69 1
30 70 3
30 71 4
30 72 2
30 73 2
30 74 4
30 75 1
30 76 1
30 77 3
30 78 2
30 79 2
30 80 4
30 81 4
30 82 1
30 83 4
30 84 1
30 85 2
30 86 3
30 87 2
30 88 1
30 89 1
30 90 3
30 91 4
30 92 4
30 93 2
30 94 5
30 95 2
30 96 1
30 97 4
30 98 3
30 99 1
30 100 4
31 32 5
31 33 1
31 34 1
31 35 4
31 36 2
31 37 5
31 38 2
31 39 1
31 40 5
31 41 1
31 42 5
31 43 3
31 44 2
31 45 3
31 46 1
31 47 3
31 48 1
31 49 5
31 50 1
31 51 1
31 52 1
31 53 1
31 54 5
31 55 2
31 56 3
31 57 4
31 58 2
31 59 4
31 60 2
31 61 4
31 62 2
31 63 2
31 64 5
31 65 1
31 66 4
31 67 5
31 68 2
31 69 1
31 70 5
31 71 3
31 72 4
31 73 4
31 74 5
31 75 2
31 76 5
31 77 3
31 78 2
31 79 2
31 80 3
31 81 5
31 82 1
31 83 4
31 84 3
31 85 3
31 86 4
31 87 2
31 88 4
31 89 4
31 90 3
31 91 4
31 92 4
31 93 1
31 94 4
31 95 3
31 96 4
31 97 4
31 98 1
31 99 3
31 100 1
32 33 4
32 34 3
32 35 2
32 36 4
32 37 3
32 38 1
32 39 3
32 40 3
32 41 3
32 42 5
32 43 4
32 44 1
32 45 1
32 46 4
32 47 3
32 48 5
32 49 2
32 50 1
32 51 5
32 52 1
32 53 2
32 54 3
32 55 4
32 56 5
32 57 1
32 58 4
32 59 2
32 60 3
32 61 4
32 62 5
32 63 1
32 64 3
32 65 1
32 66 2
32 67 3
32 68 4
32 69 2
32 70 4
32 71 4
32 72 2
32 73 2
32 74 1
32 75 1
32 76 3
32 77 2
32 78 2
32 79 5
32 80 5
32 81 4
32 82 4
32 83 2
32 84 1
32 85 4
32 86 1
32 87 4
32 88 5
32 89 4
32 90 3
32 91 5
32 92 2
32 93 1
32 94 5
32 95 3
32 96 4
32 97 3
32 98 4
32 99 2
32 100 5
33 34 2
33 35 2
33 36 2
33 37 4
33 38 1
33 39 3
33 40 3
33 41 2
33 42 5
33 43 2
33 44 2
33 45 4
33 46 4
33 47 2
33 48 2
33 49 5
33 50 2
33 51 5
33 52 5
33 53 2
33 54 5
33 55 4
33 56 4
33 57 4
33 58 2
33 59 5
33 60 4
33 61 5
33 62 2
33 63 3
33 64 2
33 65 3
33 66 1
33 67 4
33 68 2
33 69 3
33 70 2
33 71 2
33 72 4
33 73 1
33 74 4
33 75 4
33 76 1
33 77 4
33 78 3
33 79 5
33 80 3
33 81 2
33 82 1
33 83 1
33 84 5
33 85 2
33 86 3
33 87 1
33 88 3
33 89 4
33 90 3
33 91 2
33 92 2
33 93 5
33 94 3
33 95 5
33 96 5
33 97 1
33 98 1
33 99 5
33 100 2
34 35 2
34 36 5
34 37 2
34 38 1
34 39 3
34 40 5
34 41 3
34 42 2
34 43 2
34 44 1
34 45 4
34 46 4
34 47 3
34 48 2
34 49 1
34 50 3
34 51 2
34 52 4
34 53 3
34 54 1
34 55 2
34 56 4
34 57 5
34 58 2
34 59 3
34 60 2
34 61 3
34 62 1
34 63 4
34 64 5
34 65 5
34 66 2
34 67 2
34 68 2
34 69 5
34 70 4
34 71 2
34 72 3
34 73 1
34 74 1
34 75 2
34 76 5
34 77 3
34 78 3
34 79 5
34 80 2
34 81 2
34 82 1
34 83 1
34 84 5
34 85 2
34 86 1
34 87 5
34 88 1
34 89 4
34 90 5
34 91 2
34 92 4
34 93 2
34 94 3
34 95 1
34 96 5
34 97 4
34 98 2
34 99 4
34 100 1
35 36 3
35 37 5
35 38 4
35 39 5
35 40 2
35 41 4
35 42 3
35 43 3
35 44 2
35 45 1
35 46 4
35 47 2
35 48 2
35 49 5
35 50 4
35 51 4
35 52 5
35 53 3
35 54 1
35 55 3
35 56 4
35 57 3
35 58 1
35 59 5
35 60 5
35 61 1
35 62 2
35 63 3
35 64 3
35 65 4
35 66 1
35 67 5
35 68 2
35 69 2
35 70 3
35 71 4
35 72 2
35 73 1
35 74 4
35 75 4
35 76 1
35 77 4
35 78 3
35 79 1
35 80 4
35 81 4
35 82 3
35 83 1
35 84 4
35 85 4
35 86 3
35 87 2
35 88 2
35 89 2
35 90 4
35 91 1
35 92 5
35 93 5
35 94 4
35 95 3
35 96 4
35 97 5
35 98 3
35 99 2
35 100 5
36 37 3
36 38 2
36 39 3
36 40 2
36 41 4
36 42 1
36 43 2
36 44 5
36 45 4
36 46 5
36 47 2
36 48 5
36 49 2
36 50 1
36 51 4
36 52 4
36 53 5
36 54 2
36 55 1
36 56 5
36 57 1
36 58 1
36 59 5
36 60 4
36 61 1
36 62 3
36 63 2
36 64 4
36 65 1
36 66 2
36 67 3
36 68 3
36 69 1
36 70 4
36 71 4
36 72 5
36 73 3
36 74 5
36 75 1
36 76 3
36 77 2
36 78 3
36 79 3
36 80 2
36 81 5
36 82 4
36 83 5
36 84 3
36 85 5
36 86 1
36 87 4
36 88 1
36 89 4
36 90 1
36 91 5
36 92 3
36 93 5
36 94 1
36 95 3
36 96 2
36 97 1
36 98 4
36 99 5
36 100 2
37 38 2
37 39 2
37 40 5
37 41 2
37 42 2
37 43 2
37 44 2
37 45 3
37 46 3
37 47 3
37 48 1
37 49 1
37 50 1
37 51 5
37 52 3
37 53 2
37 54 2
37 55 2
37 56 3
37 57 2
37 58 5
37 59 3
37 60 2
37 61 3
37 62 3
37 63 4
37 64 3
37 65 4
37 66 4
37 67 5
37 68 1
37 69 2
37 70 2
37 71 3
37 72 5
37 73 1
37 74 5
37 75 1
37 76 5
37 77 2
37 78 2
37 79 5
37 80 3
37 81 2
37 82 4
37 83 2
37 84 1
37 85 1
37 86 3
37 87 2
37 88 2
37 89 5
37 90 4
37 91 2
37 92 3
37 93 5
37 94 4
37 95 3
37 96 4
37 97 2
37 98 2
37 99 1
37 100 4
38 39 2
38 40 2
38 41 4
38 42 1
38 43 2
38 44 5
38 45 4
38 46 3
38 47 5
38 48 5
38 49 5
38 50 1
38 51 3
38 52 4
38 53 1
38 54 3
38 55 1
38 56 3
38 57 2
38 58 5
38 59 1
38 60 3
38 61 2
38 62 4
38 63 2
38 64 2
38 65 5
38 66 2
38 67 4
38 68 2
38 69 5
38 70 2
38 71 1
38 72 1
38 73 3
38 74 2
38 75 5
38 76 3
38 77 3
38 78 2
38 79 4
38 80 1
38 81 2
38 82 5
38 83 1
38 84 5
38 85 4
38 86 2
38 87 4
38 88 2
38 89 3
38 90 5
38 91 4
38 92 1
38 93 4
38 94 4
38 95 3
38 96 1
38 97 5
38 98 5
38 99 2
38 100 5
39 40 3
39 41 3
39 42 5
39 43 2
39 44 1
39 45 4
39 46 3
39 47 1
39 48 1
39 49 2
39 50 4
39 51 3
39 52 1
39 53 4
39 54 4
39 55 3
39 56 4
39 57 1
39 58 2
39 59 1
39 60 3
39 61 5
39 62 5
39 63 4
39 64 3
39 65 4
39 66 3
39 67 1
39 68 5
39 69 1
39 70 2
39 71 1
39 72 3
39 73 2
39 74 5
39 75 2
39 76 3
39 77 5
39 78 1
39 79 5
39 80 4
39 81 3
39 82 2
39 83 1
39 84 3
39 85 2
39 86 5
39 87 4
39 88 4
39 89 3
39 90 4
39 91 3
39 92 2
39 93 5
39 94 2
39 95 5
39 96 3
39 97 1
39 98 2
39 99 4
39 100 2
40 41 4
40 42 5
40 43 5
40 44 4
40 45 1
40 46 2
40 47 5
40 48 3
40 49 1
40 50 5
40 51 5
40 52 3
40 53 4
40 54 1
40 55 4
40 56 3
40 57 1
40 58 3
40 59 5
40 60 3
40 61 1
40 62 5
40 63 1
40 64 5
40 65 3
40 66 3
40 67 2
40 68 1
40 69 1
40 70 5
40 71 2
40 72 5
40 73 3
40 74 3
40 75 5
40 76 5
40 77 1
40 78 4
40 79 2
40 80 1
40 81 3
40 82 2
40 83 4
40 84 4
40 85 3
40 86 5
40 87 3
40 88 2
40 89 5
40 90 1
40 91 2
40 92 3
40 93 3
40 94 3
40 95 5
40 96 1
40 97 3
40 98 5
40 99 2
40 100 2
41 42 2
41 43 3
41 44 3
41 45 2
41 46 5
41 47 3
41 48 4
41 49 3
41 50 1
41 51 3
41 52 2
41 53 4
41 54 1
41 55 2
41 56 2
41 57 4
41 58 1
41 59 3
41 60 5
41 61 2
41 62 5
41 63 3
41 64 2
41 65 2
41 66 4
41 67 3
41 68 4
41 69 5
41 70 5
41 71 3
41 72 3
41 73 1
41 74 2
41 75 1
41 76 3
41 77 1
41 78 1
41 79 2
41 80 1
41 81 2
41 82 4
41 83 3
41 84 4
41 85 1
41 86 3
41 87 5
41 88 2
41 89 4
41 90 4
41 91 1
41 92 1
41 93 3
41 94 5
41 95 2
41 96 5
41 97 5
41 98 5
41 99 1
41 100 3
42 43 1
42 44 2
42 45 2
42 46 5
42 47 5
42 48 4
42 49 1
42 50 1
42 51 4
42 52 5
42 53 2
42 54 4
42 55 4
42 56 3
42 57 5
42 58 2
42 59 5
42 60 2
42 61 2
42 62 2
42 63 2
42 64 5
42 65 4
42 66 4
42 67 4
42 68 3
42 69 5
42 70 3
42 71 3
42 72 4
42 73 3
42 74 4
42 75 5
42 76 2
42 77 1
42 78 4
42 79 2
42 80 1
42 81 3
42 82 2
42 83 3
42 84 3
42 85 2
42 86 4
42 87 2
42 88 2
42 89 3
42 90 4
42 91 3
42 92 3
42 93 3
42 94 2
42 95 4
42 96 5
42 97 2
42 98 1
42 99 1
42 100 1
43 44 4
43 45 2
43 46 2
43 47 4
43 48 4
43 49 5
43 50 3
43 51 4
43 52 3
43 53 5
43 54 5
43 55 5
43 56 1
43 57 3
43 58 5
43 59 4
43 60 4
43 61 3
43 62 1
43 63 2
43 64 2
43 65 5
43 66 2
43 67 5
43 68 3
43 69 2
43 70 4
43 71 1
43 72 3
43 73 4
43 74 5
43 75 2
43 76 4
43 77 5
43 78 3
43 79 1
43 80 4
43 81 1
43 82 1
43 83 4
43 84 4
43 85 3
43 86 3
43 87 4
43 88 2
43 89 2
43 90 3
43 91 4
43 92 2
43 93 2
43 94 4
43 95 3
43 96 3
43 97 2
43 98 3
43 99 5
43 100 4
44 45 3
44 46 5
44 47 1
44 48 4
44 49 2
44 50 4
44 51 4
44 52 2
44 53 2
44 54 3
44 55 2
44 56 4
44 57 1
44 58 4
44 59 3
44 60 2
44 61 1
44 62 3
44 63 5
44 64 2
44 65 1
44 66 1
44 67 3
44 68 4
44 69 5
44 70 2
44 71 1
44 72 4
44 73 5
44 74 4
44 75 4
44 76 4
44 77 1
44 78 2
44 79 4
44 80 4
44 81 3
44 82 5
44 83 1
44 84 3
44 85 3
44 86 2
44 87 2
44 88 4
44 89 3
44 90 4
44 91 5
44 92 3
44 93 4
44 94 1
44 95 2
44 96 5
44 97 4
44 98 1
44 99 1
44 100 4
45 46 1
45 47 2
45 48 2
45 49 2
45 50 2
45 51 4
45 52 4
45 53 1
45 54 2
45 55 1
45 56 3
45 57 2
45 58 1
45 59 5
45 60 4
45 61 3
45 62 5
45 63 2
45 64 3
45 65 1
45 66 3
45 67 2
45 68 2
45 69 2
45 70 3
45 71 3
45 72 3
45 73 3
45 74 5
45 75 2
45 76 4
45 77 5
45 78 1
45 79 5
45 80 2
45 81 3
45 82 4
45 83 4
45 84 1
45 85 4
45 86 2
45 87 1
45 88 5
45 89 1
45 90 4
45 91 1
45 92 1
45 93 4
45 94 2
45 95 5
45 96 4
45 97 4
45 98 1
45 99 1
45 100 5
46 47 3
46 48 4
46 49 1
46 50 1
46 51 3
46 52 4
46 53 4
46 54 2
46 55 5
46 56 4
46 57 2
46 58 5
46 59 1
46 60 3
46 61 3
46 62 1
46 63 5
46 64 1
46 65 4
46 66 3
46 67 5
46 68 5
46 69 3
46 70 3
46 71 2
46 72 2
46 73 3
46 74 2
46 75 3
46 76 5
46 77 2
46 78 3
46 79 4
46 80 1
46 81 4
46 82 5
46 83 2
46 84 4
46 85 4
46 86 1
46 87 3
46 88 5
46 89 2
46 90 5
46 91 1
46 92 3
46 93 2
46 94 5
46 95 3
46 96 3
46 97 4
46 98 3
46 99 1
46 100 3
47 48 3
47 49 3
47 50 1
47 51 5
47 52 3
47 53 4
47 54 3
47 55 2
47 56 3
47 57 4
47 58 2
47 59 5
47 60 3
47 61 5
47 62 2
47 63 1
47 64 3
47 65 5
47 66 4
47 67 1
47 68 5
47 69 5
47 70 1
47 71 5
47 72 2
47 73 3
47 74 2
47 75 4
47 76 2
47 77 4
47 78 5
47 79 4
47 80 2
47 81 4
47 82 3
47 83 2
47 84 3
47 85 5
47 86 3
47 87 5
47 88 4
47 89 2
47 90 3
47 91 2
47 92 2
47 93 3
47 94 1
47 95 3
47 96 4
47 97 1
47 98 5
47 99 2
47 100 4
48 49 2
48 50 1
48 51 4
48 52 2
48 53 1
48 54 3
48 55 5
48 56 5
48 57 1
48 58 2
48 59 1
48 60 3
48 61 5
48 62 4
48 63 4
48 64 2
48 65 2
48 66 1
48 67 2
48 68 1
48 69 3
48 70 5
48 71 1
48 72 5
48 73 2
48 74 1
48 75 4
48 76 5
48 77 2
48 78 1
48 79 1
48 80 4
48 81 2
48 82 1
48 83 4
48 84 3
48 85 3
48 86 4
48 87 1
48 88 4
48 89 1
48 90 3
48 91 2
48 92 1
48 93 2
48 94 2
48 95 5
48 96 4
48 97 5
48 98 1
48 99 4
48 100 1
49 50 3
49 51 3
49 52 2
49 53 4
49 54 3
49 55 1
49 56 3
49 57 2
49 58 4
49 59 2
49 60 5
49 61 2
49 62 5
49 63 2
49 64 2
49 65 5
49 66 4
49 67 3
49 68 3
49 69 5
49 70 3
49 71 3
49 72 5
49 73 3
49 74 3
49 75 2
49 76 1
49 77 5
49 78 4
49 79 2
49 80 4
49 81 5
49 82 4
49 83 4
49 84 2
49 85 1
49 86 5
49 87 1
49 88 3
49 89 3
49 90 2
49 91 5
49 92 2
49 93 5
49 94 4
49 95 3
49 96 1
49 97 1
49 98 4
49 99 2
49 100 3
50 51 2
50 52 5
50 53 4
50 54 1
50 55 2
50 56 1
50 57 5
50 58 5
50 59 5
50 60 3
50 61 5
50 62 4
50 63 1
50 64 2
50 65 2
50 66 2
50 67 2
50 68 5
50 69 2
50 70 3
50 71 4
50 72 5
50 73 4
50 74 3
50 75 4
50 76 4
50 77 1
50 78 3
50 79 3
50 80 5
50 81 5
50 82 3
50 83 3
50 84 5
50 85 3
50 86 3
50 87 2
50 88 4
50 89 3
50 90 2
50 91 4
50 92 1
50 93 5
50 94 2
50 95 2
50 96 1
50 97 2
50 98 3
50 99 5
50 100 4
51 52 2
51 53 3
51 54 3
51 55 5
51 56 5
51 57 3
51 58 5
51 59 2
51 60 3
51 61 4
51 62 3
51 63 2
51 64 1
51 65 2
51 66 5
51 67 3
51 68 1
51 69 4
51 70 3
51 71 1
51 72 3
51 73 3
51 74 3
51 75 4
51 76 1
51 77 2
51 78 5
51 79 5
51 80 1
51 81 2
51 82 5
51 83 3
51 84 3
51 85 1
51 86 1
51 87 1
51 88 2
51 89 3
51 90 1
51 91 3
51 92 3
51 93 5
51 94 4
51 95 1
51 96 5
51 97 3
51 98 4
51 99 3
51 100 4
52 53 4
52 54 1
52 55 1
52 56 1
52 57 5
52 58 1
52 59 1
52 60 4
52 61 1
52 62 1
52 63 1
52 64 1
52 65 1
52 66 4
52 67 3
52 68 4
52 69 2
52 70 1
52 71 4
52 72 2
52 73 5
52 74 3
52 75 5
52 76 4
52 77 2
52 78 5
52 79 4
52 80 2
52 81 5
52 82 2
52 83 5
52 84 5
52 85 2
52 86 2
52 87 4
52 88 4
52 89 2
52 90 4
52 91 1
52 92 2
52 93 4
52 94 4
52 95 5
52 96 5
52 97 2
52 98 1
52 99 1
52 100 2
53 54 3
53 55 1
53 56 4
53 57 3
53 58 2
53 59 4
53 60 4
53 61 2
53 62 1
53 63 5
53 64 2
53 65 4
53 66 3
53 67 2
53 68 5
53 69 5
53 70 1
53 71 1
53 72 1
53 73 2
53 74 4
53 75 5
53 76 5
53 77 3
53 78 4
53 79 1
53 80 2
53 81 1
53 82 3
53 83 4
53 84 4
53 85 5
53 86 5
53 87 5
53 88 3
53 89 2
53 90 5
53 91 3
53 92 5
53 93 5
53 94 5
53 95 1
53 96 5
53 97 5
53 98 5
53 99 2
53 100 1
54 55 1
54 56 1
54 57 2
54 58 5
54 59 2
54 60 3
54 61 4
54 62 1
54 63 2
54 64 4
54 65 1
54 66 1
54 67 3
54 68 2
54 69 2
54 70 4
54 71 2
54 72 4
54 73 1
54 74 4
54 75 4
54 76 4
54 77 1
54 78 1
54 79 1
54 80 2
54 81 4
54 82 4
54 83 4
54 84 2
54 85 1
54 86 5
54 87 2
54 88 1
54 89 5
54 90 1
54 91 2
54 92 1
54 93 5
54 94 3
54 95 3
54 96 4
54 97 2
54 98 2
54 99 5
54 100 3
55 56 3
55 57 1
55 58 4
55 59 4
55 60 5
55 61 1
55 62 5
55 63 1
55 64 3
55 65 5
55 66 4
55 67 3
55 68 2
55 69 2
55 70 1
55 71 4
55 72 1
55 73 4
55 74 3
55 75 1
55 76 4
55 77 4
55 78 2
55 79 1
55 80 4
55 81 3
55 82 2
55 83 3
55 84 5
55 85 3
55 86 4
55 87 1
55 88 1
55 89 3
55 90 5
55 91 1
55 92 3
55 93 3
55 94 1
55 95 5
55 96 2
55 97 4
55 98 1
55 99 1
55 100 3
56 57 5
56 58 1
56 59 5
56 60 1
56 61 2
56 62 2
56 63 2
56 64 2
56 65 2
56 66 1
56 67 3
56 68 4
56 69 2
56 70 2
56 71 1
56 72 1
56 73 2
56 74 5
56 75 3
56 76 2
56 77 4
56 78 1
56 79 5
56 80 3
56 81 4
56 82 3
56 83 3
56 84 5
56 85 1
56 86 2
56 87 4
56 88 1
56 89 5
56 90 1
56 91 2
56 92 4
56 93 4
56 94 4
56 95 1
56 96 3
56 97 2
56 98 3
56 99 4
56 100 1
57 58 3
57 59 5
57 60 4
57 61 1
57 62 2
57 63 4
57 64 5
57 65 3
57 66 1
57 67 2
57 68 4
57 69 5
57 70 5
57 71 4
57 72 3
57 73 4
57 74 1
57 75 5
57 76 1
57 77 3
57 78 2
57 79 1
57 80 2
57 81 4
57 82 2
57 83 2
57 84 3
57 85 4
57 86 3
57 87 1
57 88 2
57 89 5
57 90 5
57 91 4
57 92 1
57 93 3
57 94 2
57 95 4
57 96 4
57 97 4
57 98 4
57 99 4
57 100 3
58 59 4
58 60 1
58 61 2
58 62 3
58 63 4
58 64 1
58 65 2
58 66 1
58 67 3
58 68 4
58 69 4
58 70 2
58 71 3
58 72 4
58 73 3
58 74 1
58 75 3
58 76 2
58 77 1
58 78 3
58 79 4
58 80 4
58 81 3
58 82 4
58 83 4
58 84 2
58 85 1
58 86 3
58 87 1
58 88 4
58 89 4
58 90 2
58 91 2
58 92 5
58 93 2
58 94 4
58 95 1
58 96 3
58 97 5
58 98 4
58 99 4
58 100 5
59 60 1
59 61 3
59 62 5
59 63 1
59 64 1
59 65 3
59 66 3
59 67 2
59 68 5
59 69 3
59 70 1
59 71 1
59 72 3
59 73 1
59 74 4
59 75 2
59 76 4
59 77 2
59 78 3
59 79 4
59 80 3
59 81 5
59 82 5
59 83 3
59 84 2
59 85 2
59 86 2
59 87 2
59 88 4
59 89 2
59 90 1
59 91 4
59 92 1
59 93 2
59 94 3
59 95 2
59 96 5
59 97 4
59 98 2
59 99 1
59 100 3
60 61 2
60 62 5
60 63 2
60 64 5
60 65 2
60 66 5
60 67 3
60 68 5
60 69 1
60 70 1
60 71 1
60 72 4
60 73 3
60 74 2
60 75 4
60 76 2
60 77 4
60 78 2
60 79 3
60 80 5
60 81 5
60 82 4
60 83 2
60 84 1
60 85 1
60 86 5
60 87 2
60 88 5
60 89 5
60 90 3
60 91 4
60 92 4
60 93 1
60 94 5
60 95 1
60 96 2
60 97 5
60 98 1
60 99 3
60 100 3
61 62 2
61 63 5
61 64 5
61 65 1
61 66 5
61 67 4
61 68 2
61 69 2
61 70 1
61 71 3
61 72 5
61 73 2
61 74 1
61 75 3
61 76 2
61 77 1
61 78 4
61 79 2
61 80 1
61 81 4
61 82 5
61 83 3
61 84 5
61 85 4
61 86 5
61 87 3
61 88 2
61 89 1
61 90 4
61 91 2
61 92 2
61 93 4
61 94 5
61 95 2
61 96 1
61 97 4
61 98 2
61 99 2
61 100 2
62 63 1
62 64 5
62 65 5
62 66 5
62 67 5
62 68 4
62 69 3
62 70 3
62 71 3
62 72 3
62 73 3
62 74 3
62 75 5
62 76 3
62 77 3
62 78 2
62 79 1
62 80 4
62 81 4
62 82 5
62 83 5
62 84 5
62 85 3
62 86 5
62 87 5
62 88 3
62 89 5
62 90 4
62 91 3
62 92 1
62 93 2
62 94 1
62 95 1
62 96 3
62 97 3
62 98 5
62 99 3
62 100 5
63 64 2
63 65 4
63 66 2
63 67 4
63 68 5
63 69 1
63 70 3
63 71 5
63 72 3
63 73 4
63 74 4
63 75 5
63 76 1
63 77 1
63 78 3
63 79 1
63 80 5
63 81 1
63 82 2
63 83 5
63 84 2
63 85 3
63 86 3
63 87 2
63 88 2
63 89 2
63 90 3
63 91 4
63 92 4
63 93 3
63 94 3
63 95 5
63 96 4
63 97 3
63 98 3
63 99 2
63 100 3
64 65 5
64 66 5
64 67 1
64 68 3
64 69 4
64 70 4
64 71 3
64 72 3
64 73 2
64 74 3
64 75 1
64 76 2
64 77 4
64 78 3
64 79 5
64 80 1
64 81 1
64 82 4
64 83 2
64 84 2
64 85 1
64 86 3
64 87 2
64 88 3
64 89 5
64 90 3
64 91 1
64 92 2
64 93 5
64 94 4
64 95 4
64 96 5
64 97 3
64 98 5
64 99 2
64 100 3
65 66 3
65 67 1
65 68 1
65 69 2
65 70 5
65 71 5
65 72 3
65 73 5
65 74 1
65 75 4
65 76 1
65 77 3
65 78 4
65 79 5
65 80 3
65 81 2
65 82 3
65 83 4
65 84 2
65 85 1
65 86 5
65 87 1
65 88 1
65 89 1
65 90 2
65 91 2
65 92 5
65 93 2
65 94 4
65 95 2
65 96 1
65 97 4
65 98 2
65 99 4
65 100 5
66 67 3
66 68 4
66 69 5
66 70 3
66 71 4
66 72 3
66 73 2
66 74 5
66 75 5
66 76 2
66 77 3
66 78 2
66 79 5
66 80 1
66 81 3
66 82 4
66 83 4
66 84 3
66 85 3
66 86 4
66 87 1
66 88 5
66 89 3
66 90 4
66 91 3
66 92 3
66 93 2
66 94 1
66 95 4
66 96 2
66 97 5
66 98 5
66 99 5
66 100 1
67 68 5
67 69 1
67 70 4
67 71 5
67 72 2
67 73 1
67 74 2
67 75 2
67 76 5
67 77 2
67 78 1
67 79 1
67 80 5
67 81 4
67 82 3
67 83 3
67 84 5
67 85 1
67 86 3
67 87 4
67 88 5
67 89 4
67 90 2
67 91 4
67 92 2
67 93 5
67 94 1
67 95 1
67 96 1
67 97 3
67 98 3
67 99 5
67 100 4
68 69 5
68 70 1
68 71 2
68 72 1
68 73 5
68 74 4
68 75 1
68 76 3
68 77 1
68 78 3
68 79 1
68 80 4
68 81 5
68 82 1
68 83 5
68 84 1
68 85 2
68 86 2
68 87 4
68 88 5
68 89 5
68 90 4
68 91 3
68 92 1
68 93 2
68 94 3
68 95 1
68 96 2
68 97 5
68 98 5
68 99 3
68 100 5
69 70 3
69 71 2
69 72 3
69 73 5
69 74 3
69 75 2
69 76 2
69 77 3
69 78 5
69 79 1
69 80 5
69 81 1
69 82 3
69 83 5
69 84 5
69 85 3
69 86 4
69 87 1
69 88 5
69 89 3
69 90 3
69 91 2
69 92 5
69 93 5
69 94 2
69 95 1
69 96 5
69 97 3
69 98 3
69 99 1
69 100 3
70 71 5
70 72 2
70 73 5
70 74 4
70 75 5
70 76 4
70 77 3
70 78 5
70 79 1
70 80 5
70 81 4
70 82 5
70 83 5
70 84 3
70 85 5
70 86 2
70 87 5
70 88 5
70 89 2
70 90 1
70 91 4
70 92 2
70 93 1
70 94 1
70 95 2
70 96 1
70 97 3
70 98 5
70 99 5
70 100 1
71 72 1
71 73 3
71 74 4
71 75 1
71 76 3
71 77 3
71 78 3
71 79 3
71 80 1
71 81 2
71 82 4
71 83 1
71 84 5
71 85 1
71 86 2
71 87 1
71 88 2
71 89 4
71 90 4
71 91 5
71 92 4
71 93 4
71 94 4
71 95 3
71 96 5
71 97 1
71 98 3
71 99 4
71 100 2
72 73 1
72 74 4
72 75 1
72 76 2
72 77 1
72 78 3
72 79 4
72 80 5
72 81 2
72 82 4
72 83 4
72 84 2
72 85 2
72 86 3
72 87 4
72 88 1
72 89 5
72 90 1
72 91 5
72 92 4
72 93 5
72 94 5
72 95 3
72 96 5
72 97 5
72 98 4
72 99 2
72 100 2
73 74 5
73 75 4
73 76 1
73 77 4
73 78 3
73 79 1
73 80 1
73 81 1
73 82 1
73 83 3
73 84 4
73 85 2
73 86 2
73 87 2
73 88 4
73 89 4
73 90 1
73 91 2
73 92 4
73 93 3
73 94 1
73 95 1
73 96 3
73 97 3
73 98 4
73 99 1
73 100 2
74 75 4
74 76 1
74 77 3
74 78 3
74 79 1
74 80 5
74 81 5
74 82 4
74 83 5
74 84 4
74 85 5
74 86 3
74 87 5
74 88 3
74 89 1
74 90 5
74 91 5
74 92 3
74 93 5
74 94 1
74 95 3
74 96 2
74 97 1
74 98 3
74 99 5
74 100 1
75 76 4
75 77 2
75 78 1
75 79 4
75 80 3
75 81 2
75 82 5
75 83 3
75 84 5
75 85 2
75 86 1
75 87 2
75 88 3
75 89 4
75 90 5
75 91 1
75 92 2
75 93 1
75 94 4
75 95 4
75 96 1
75 97 3
75 98 5
75 99 3
75 100 1
76 77 3
76 78 4
76 79 4
76 80 1
76 81 1
76 82 2
76 83 3
76 84 4
76 85 5
76 86 1
76 87 4
76 88 4
76 89 2
76 90 5
76 91 1
76 92 4
76 93 1
76 94 3
76 95 2
76 96 5
76 97 5
76 98 2
76 99 2
76 100 2
77 78 4
77 79 5
77 80 3
77 81 2
77 82 2
77 83 1
77 84 4
77 85 1
77 86 1
77 87 1
77 88 5
77 89 5
77 90 4
77 91 5
77 92 1
77 93 2
77 94 1
77 95 3
77 96 5
77 97 4
77 98 5
77 99 2
77 100 4
78 79 5
78 80 1
78 81 3
78 82 1
78 83 4
78 84 5
78 85 4
78 86 4
78 87 1
78 88 5
78 89 5
78 90 2
78 91 2
78 92 4
78 93 2
78 94 3
78 95 3
78 96 2
78 97 3
78 98 3
78 99 2
78 100 2
79 80 1
79 81 4
79 82 5
79 83 5
79 84 5
79 85 4
79 86 5
79 87 4
79 88 5
79 89 2
79 90 5
79 91 2
79 92 5
79 93 5
79 94 3
79 95 4
79 96 4
79 97 1
79 98 4
79 99 1
79 100 3
80 81 1
80 82 1
80 83 5
80 84 2
80 85 5
80 86 2
80 87 1
80 88 3
80 89 1
80 90 4
80 91 4
80 92 4
80 93 3
80 94 4
80 95 3
80 96 2
80 97 2
80 98 1
80 99 4
80 100 4
81 82 5
81 83 3
81 84 4
81 85 3
81 86 3
81 87 5
81 88 3
81 89 3
81 90 4
81 91 4
81 92 4
81 93 2
81 94 1
81 95 2
81 96 4
81 97 4
81 98 5
81 99 2
81 100 5
82 83 3
82 84 2
82 85 4
82 86 3
82 87 2
82 88 3
82 89 3
82 90 3
82 91 4
82 92 4
82 93 1
82 94 2
82 95 5
82 96 4
82 97 5
82 98 2
82 99 1
82 100 1
83 84 2
83 85 4
83 86 4
83 87 4
83 88 4
83 89 3
83 90 2
83 91 2
83 92 2
83 93 1
83 94 4
83 95 4
83 96 5
83 97 1
83 98 1
83 99 1
83 100 5
84 85 1
84 86 1
84 87 3
84 88 3
84 89 2
84 90 2
84 91 1
84 92 4
84 93 4
84 94 5
84 95 3
84 96 2
84 97 2
84 98 4
84 99 4
84 100 4
85 86 1
85 87 3
85 88 4
85 89 3
85 90 4
85 91 2
85 92 2
85 93 5
85 94 1
85 95 3
85 96 2
85 97 4
85 98 5
85 99 4
85 100 1
86 87 1
86 88 5
86 89 2
86 90 4
86 91 1
86 92 4
86 93 4
86 94 5
86 95 2
86 96 5
86 97 3
86 98 2
86 99 5
86 100 5
87 88 2
87 89 1
87 90 2
87 91 4
87 92 3
87 93 5
87 94 1
87 95 3
87 96 4
87 97 4
87 98 4
87 99 4
87 100 5
88 89 3
88 90 3
88 91 1
88 92 1
88 93 3
88 94 5
88 95 3
88 96 5
88 97 3
88 98 2
88 99 1
88 100 4
89 90 3
89 91 3
89 92 2
89 93 1
89 94 4
89 95 3
89 96 3
89 97 1
89 98 5
89 99 2
89 100 3
90 91 4
90 92 1
90 93 2
90 94 2
90 95 1
90 96 5
90 97 2
90 98 3
90 99 2
90 100 2
91 92 2
91 93 1
91 94 5
91 95 3
91 96 5
91 97 3
91 98 4
91 99 5
91 100 4
92 93 2
92 94 2
92 95 4
92 96 2
92 97 4
92 98 2
92 99 2
92 100 1
93 94 1
93 95 5
93 96 3
93 97 4
93 98 1
93 99 2
93 100 3
94 95 5
94 96 2
94 97 1
94 98 4
94 99 1
94 100 2
95 96 5
95 97 2
95 98 2
95 99 2
95 100 3
96 97 2
96 98 2
96 99 3
96 100 1
97 98 1
97 99 3
97 100 2
98 99 2
98 100 2
99 100 2
